# fdf file created by c2x
LatticeConstant  1.0 Ang
%block LatticeVectors
  2.4890159   0.0000000   0.0000000
  0.0000000   2.4890159   0.0000000
  0.0000000   0.0000000  10.5600000
%endblock LatticeVectors

NumberOfAtoms    6
NumberOfSpecies  2
%block ChemicalSpeciesLabel
1  28   Ni
2  25   Mn
%endblock ChemicalSpeciesLabel

AtomicCoordinatesFormat Fractional
%block AtomicCoordinatesAndAtomicSpecies
  0.000000000  0.000000000  0.666666667 1
  0.000000000  0.000000000  0.000000000 2
  0.500000000  0.500000000  0.166666667 2
  0.000000000  0.000000000  0.333333333 2
  0.500000000  0.500000000  0.500000000 2
  0.500000000  0.500000000  0.833333333 2
%endblock AtomicCoordinatesAndAtomicSpecies
