# fdf file created by c2x
LatticeConstant  1.0 Ang
%block LatticeVectors
  2.4890159   0.0000000   0.0000000
  0.0000000   9.9560635   0.0000000
  0.0000000   0.0000000   3.5200000
%endblock LatticeVectors

NumberOfAtoms    8
NumberOfSpecies  2
%block ChemicalSpeciesLabel
1  31   Ga
2  25   Mn
%endblock ChemicalSpeciesLabel

AtomicCoordinatesFormat Fractional
%block AtomicCoordinatesAndAtomicSpecies
  0.000000000  0.500000000  0.000000000 1
  0.500000000  0.125000000  0.500000000 1
  0.500000000  0.625000000  0.500000000 1
  0.000000000  0.000000000  0.000000000 2
  0.000000000  0.250000000  0.000000000 2
  0.000000000  0.750000000  0.000000000 2
  0.500000000  0.375000000  0.500000000 2
  0.500000000  0.875000000  0.500000000 2
%endblock AtomicCoordinatesAndAtomicSpecies
