# fdf file created by c2x
LatticeConstant  1.0 Ang
%block LatticeVectors
  5.1300000   0.0000000   0.0000000
  0.0000000   5.1300000   0.0000000
  0.0000000   0.0000000   5.1300000
%endblock LatticeVectors

NumberOfAtoms    16
NumberOfSpecies  3
%block ChemicalSpeciesLabel
1  31   Ga
2  28   Ni
3  25   Mn
%endblock ChemicalSpeciesLabel

AtomicCoordinatesFormat Fractional
%block AtomicCoordinatesAndAtomicSpecies
  0.856710985  0.394502628  0.375832890 1
  0.394361313  0.856823105  0.375940521 1
  0.640387545  0.640446899  0.656751253 2
  0.360234532  0.360290044  0.840546990 2
  0.891715023  0.891799960  0.902523553 2
  0.612134958  0.612343689  0.087313276 3
  0.612291299  0.141980631  0.116522440 3
  0.141963772  0.612421831  0.116480714 3
  0.141027942  0.141108944  0.148080550 3
  0.862239059  0.862301207  0.334170211 3
  0.382991044  0.383046140  0.406381654 3
  0.109464477  0.109683128  0.595706098 3
  0.640107861  0.111042029  0.627334344 3
  0.110924411  0.640080860  0.627369852 3
  0.351210329  0.900892781  0.877205277 3
  0.900724536  0.351329527  0.877360808 3
%endblock AtomicCoordinatesAndAtomicSpecies
