   16

Ga      4.394927    2.023798    1.928023
Ga      2.023074    4.395503    1.928575
Ni      3.285188    3.285493    3.369134
Ni      1.848003    1.848288    4.312006
Ni      4.574498    4.574934    4.629946
Mn      3.140252    3.141323    0.447917
Mn      3.141054    0.728361    0.597760
Mn      0.728274    3.141724    0.597546
Mn      0.723473    0.723889    0.759653
Mn      4.423286    4.423605    1.714293
Mn      1.964744    1.965027    2.084738
Mn      0.561553    0.562674    3.055972
Mn      3.283753    0.569646    3.218225
Mn      0.569042    3.283615    3.218407
Mn      1.801709    4.621580    4.500063
Mn      4.620717    1.802320    4.500861
