# fdf file created by c2x
LatticeConstant  1.0 Ang
%block LatticeVectors
  2.4890159   0.0000000   0.0000000
  0.0000000  12.4450793   0.0000000
  0.0000000   0.0000000   3.5200000
%endblock LatticeVectors

NumberOfAtoms    10
NumberOfSpecies  3
%block ChemicalSpeciesLabel
1  31   Ga
2  28   Ni
3  25   Mn
%endblock ChemicalSpeciesLabel

AtomicCoordinatesFormat Fractional
%block AtomicCoordinatesAndAtomicSpecies
  0.500000000  0.100000000  0.500000000 1
  0.000000000  0.800000000  0.000000000 2
  0.500000000  0.700000000  0.500000000 2
  0.000000000  0.000000000  0.000000000 3
  0.000000000  0.200000000  0.000000000 3
  0.000000000  0.400000000  0.000000000 3
  0.000000000  0.600000000  0.000000000 3
  0.500000000  0.300000000  0.500000000 3
  0.500000000  0.500000000  0.500000000 3
  0.500000000  0.900000000  0.500000000 3
%endblock AtomicCoordinatesAndAtomicSpecies
