16
Converted from atoms_final.cif by c2x
 Ga     3.80795047     1.26440782     1.90208981
 Ga     1.26453505     3.80812324     1.90207454
 Ni     2.53623585     2.53627918     3.80533355
 Ni     1.24555511     1.24556345     5.65785491
 Ni     3.82696009     3.82700475     5.65787116
 Mn     0.00000000     0.00000024     0.00000000
 Mn     2.53625871     0.00001759     0.00000000
 Mn     0.00000000     2.53626109     0.00000000
 Mn     2.53625645     2.53626226     0.00000000
 Mn     1.26182239     1.26200744     1.93103395
 Mn     3.81067259     3.81052678     1.93104431
 Mn     0.00000000     0.00000000     3.85489244
 Mn     2.53623745     0.00000000     3.89427806
 Mn     0.00000000     2.53628009     3.89434736
 Mn     3.74661082     1.32580937     5.61668994
 Mn     1.32594195     3.74676437     5.61672091
