   16

Ga      3.822333    1.308397    1.902105
Ga      1.308527    3.822506    1.902088
Ni      2.565427    2.565468    3.805348
Ni      1.259899    1.259905    5.657862
Ni      3.871007    3.871049    5.657893
Mn     -0.000016   -0.000000   -0.179070
Mn      2.536089    0.029371   -0.036270
Mn      0.029344    2.536091   -0.036381
Mn      2.565439    2.565445   -0.110496
Mn      1.276347    1.276530    1.931041
Mn      3.854522    3.854377    1.931066
Mn      0.000022   -0.000016    3.854892
Mn      2.536076    0.029359    3.894286
Mn      0.029372    2.536117    3.894354
Mn      3.761716    1.369091    5.616705
Mn      1.369227    3.761868    5.616734
