1   3   2   
      1.000000000000
      5.072486877441        0.000000000000        0.000000000000
      0.000000000000        5.072541236877        0.000000000000
      0.000000000000        0.000000000000        7.536676883698
 2  3  11 
Direct
      0.756478071213       0.249199911952       0.252377778292 
      0.266670793295       0.750533223152       0.252375751734 
      0.511575162411       0.499870806932       0.504908680916 
      0.251240402460       0.245488956571       0.750709533691 
      0.771922409534       0.754257559776       0.750711679459 
     -0.000003311448      -0.000000096621      -0.023759776726 
      0.500003039837       0.000003437977      -0.004813569132 
      0.011570773087       0.499864161015      -0.004827975761 
      0.511575043201       0.499864310026      -0.014662984759 
      0.254518508911       0.248726859689       0.256218224764 
      0.768632352352       0.751006960869       0.256219595671 
      0.000006628547      -0.000001383299       0.511484384537 
      0.500002920628       0.000003104094       0.516710221767 
      0.011578870937       0.499871015549       0.516719460487 
      0.744669556618       0.261304348707       0.745247602463 
      0.278500586748       0.738443195820       0.745251595974 
