# fdf file created by c2x
LatticeConstant  1.0 Ang
%block LatticeVectors
  2.4890159   0.0000000   0.0000000
  0.0000000   2.4890159   0.0000000
  0.0000000   0.0000000  17.6000000
%endblock LatticeVectors

NumberOfAtoms    10
NumberOfSpecies  2
%block ChemicalSpeciesLabel
1  28   Ni
2  25   Mn
%endblock ChemicalSpeciesLabel

AtomicCoordinatesFormat Fractional
%block AtomicCoordinatesAndAtomicSpecies
  0.000000000  0.000000000  0.000000000 1
  0.500000000  0.500000000  0.100000000 1
  0.000000000  0.000000000  0.200000000 1
  0.000000000  0.000000000  0.400000000 1
  0.500000000  0.500000000  0.500000000 1
  0.000000000  0.000000000  0.600000000 1
  0.500000000  0.500000000  0.700000000 1
  0.500000000  0.500000000  0.900000000 1
  0.500000000  0.500000000  0.300000000 2
  0.000000000  0.000000000  0.800000000 2
%endblock AtomicCoordinatesAndAtomicSpecies
