# fdf file created by c2x
LatticeConstant  1.0 Ang
%block LatticeVectors
  2.4890159   0.0000000   0.0000000
  0.0000000   2.4890159   0.0000000
  0.0000000   0.0000000   3.5200000
%endblock LatticeVectors

NumberOfAtoms    2
NumberOfSpecies  1
%block ChemicalSpeciesLabel
1  28   Ni
%endblock ChemicalSpeciesLabel

AtomicCoordinatesFormat Fractional
%block AtomicCoordinatesAndAtomicSpecies
  0.000000000  0.000000000  0.000000000 1
  0.500000000  0.500000000  0.500000000 1
%endblock AtomicCoordinatesAndAtomicSpecies
