# fdf file created by c2x
LatticeConstant  1.0 Ang
%block LatticeVectors
  2.4890159   0.0000000   0.0000000
  0.0000000   7.4670476   0.0000000
  0.0000000   0.0000000   3.5200000
%endblock LatticeVectors

NumberOfAtoms    6
NumberOfSpecies  3
%block ChemicalSpeciesLabel
1  31   Ga
2  28   Ni
3  25   Mn
%endblock ChemicalSpeciesLabel

AtomicCoordinatesFormat Fractional
%block AtomicCoordinatesAndAtomicSpecies
  0.500000000  0.166666667  0.500000000 1
  0.000000000  0.000000000  0.000000000 2
  0.000000000  0.666666667  0.000000000 2
  0.500000000  0.500000000  0.500000000 2
  0.500000000  0.833333333  0.500000000 2
  0.000000000  0.333333333  0.000000000 3
%endblock AtomicCoordinatesAndAtomicSpecies
